c nIsolatedPIs 0
c maxPI 32
p cnf 289 772
c gate 33 -2 18 0
-2 -33 0
18 -33 0
2 -18 33 0
c gate 34 2 -18 0
2 -34 0
-18 -34 0
-2 18 34 0
c gate 35 -33 -34 0
-33 -35 0
-34 -35 0
33 34 35 0
c gate 36 1 17 0
1 -36 0
17 -36 0
-1 -17 36 0
c gate 37 -35 36 0
-35 -37 0
36 -37 0
35 -36 37 0
c gate 38 2 18 0
2 -38 0
18 -38 0
-2 -18 38 0
c gate 39 -37 -38 0
-37 -39 0
-38 -39 0
37 38 39 0
c gate 40 -3 -19 0
-3 -40 0
-19 -40 0
3 19 40 0
c gate 41 3 19 0
3 -41 0
19 -41 0
-3 -19 41 0
c gate 42 -40 -41 0
-40 -42 0
-41 -42 0
40 41 42 0
c gate 43 -39 -42 0
-39 -43 0
-42 -43 0
39 42 43 0
c gate 44 18 -40 0
18 -44 0
-40 -44 0
-18 40 44 0
c gate 45 18 -39 0
18 -45 0
-39 -45 0
-18 39 45 0
c gate 46 37 42 0
37 -46 0
42 -46 0
-37 -42 46 0
c gate 47 -45 -46 0
-45 -47 0
-46 -47 0
45 46 47 0
c gate 48 -44 -47 0
-44 -48 0
-47 -48 0
44 47 48 0
c gate 49 -43 -48 0
-43 -49 0
-48 -49 0
43 48 49 0
c gate 50 3 -19 0
3 -50 0
-19 -50 0
-3 19 50 0
c gate 51 -3 19 0
-3 -51 0
19 -51 0
3 -19 51 0
c gate 52 -1 17 0
-1 -52 0
17 -52 0
1 -17 52 0
c gate 53 -33 -52 0
-33 -53 0
-52 -53 0
33 52 53 0
c gate 54 -34 -53 0
-34 -54 0
-53 -54 0
34 53 54 0
c gate 55 -51 -54 0
-51 -55 0
-54 -55 0
51 54 55 0
c gate 56 -50 -55 0
-50 -56 0
-55 -56 0
50 55 56 0
c gate 57 4 -20 0
4 -57 0
-20 -57 0
-4 20 57 0
c gate 58 56 57 0
56 -58 0
57 -58 0
-56 -57 58 0
c gate 59 15 31 0
15 -59 0
31 -59 0
-15 -31 59 0
c gate 60 -15 -31 0
-15 -60 0
-31 -60 0
15 31 60 0
c gate 61 -59 -60 0
-59 -61 0
-60 -61 0
59 60 61 0
c gate 62 14 30 0
14 -62 0
30 -62 0
-14 -30 62 0
c gate 63 -10 -26 0
-10 -63 0
-26 -63 0
10 26 63 0
c gate 64 -9 -25 0
-9 -64 0
-25 -64 0
9 25 64 0
c gate 65 9 25 0
9 -65 0
25 -65 0
-9 -25 65 0
c gate 66 -8 -24 0
-8 -66 0
-24 -66 0
8 24 66 0
c gate 67 -8 24 0
-8 -67 0
24 -67 0
8 -24 67 0
c gate 68 8 -24 0
8 -68 0
-24 -68 0
-8 24 68 0
c gate 69 -67 -68 0
-67 -69 0
-68 -69 0
67 68 69 0
c gate 70 7 23 0
7 -70 0
23 -70 0
-7 -23 70 0
c gate 71 -7 -23 0
-7 -71 0
-23 -71 0
7 23 71 0
c gate 72 6 22 0
6 -72 0
22 -72 0
-6 -22 72 0
c gate 73 -5 -21 0
-5 -73 0
-21 -73 0
5 21 73 0
c gate 74 6 -22 0
6 -74 0
-22 -74 0
-6 22 74 0
c gate 75 -6 22 0
-6 -75 0
22 -75 0
6 -22 75 0
c gate 76 -74 -75 0
-74 -76 0
-75 -76 0
74 75 76 0
c gate 77 -73 -76 0
-73 -77 0
-76 -77 0
73 76 77 0
c gate 78 5 21 0
5 -78 0
21 -78 0
-5 -21 78 0
c gate 79 -73 -78 0
-73 -79 0
-78 -79 0
73 78 79 0
c gate 80 -76 79 0
-76 -80 0
79 -80 0
76 -79 80 0
c gate 81 4 20 0
4 -81 0
20 -81 0
-4 -20 81 0
c gate 82 39 -41 0
39 -82 0
-41 -82 0
-39 41 82 0
c gate 83 -4 -20 0
-4 -83 0
-20 -83 0
4 20 83 0
c gate 84 -40 -83 0
-40 -84 0
-83 -84 0
40 83 84 0
c gate 85 -82 84 0
-82 -85 0
84 -85 0
82 -84 85 0
c gate 86 -81 -85 0
-81 -86 0
-85 -86 0
81 85 86 0
c gate 87 80 86 0
80 -87 0
86 -87 0
-80 -86 87 0
c gate 88 77 -87 0
77 -88 0
-87 -88 0
-77 87 88 0
c gate 89 -72 -88 0
-72 -89 0
-88 -89 0
72 88 89 0
c gate 90 -71 -89 0
-71 -90 0
-89 -90 0
71 89 90 0
c gate 91 -70 -90 0
-70 -91 0
-90 -91 0
70 90 91 0
c gate 92 -69 91 0
-69 -92 0
91 -92 0
69 -91 92 0
c gate 93 -66 -92 0
-66 -93 0
-92 -93 0
66 92 93 0
c gate 94 -65 -93 0
-65 -94 0
-93 -94 0
65 93 94 0
c gate 95 -64 -94 0
-64 -95 0
-94 -95 0
64 94 95 0
c gate 96 -63 95 0
-63 -96 0
95 -96 0
63 -95 96 0
c gate 97 11 27 0
11 -97 0
27 -97 0
-11 -27 97 0
c gate 98 10 26 0
10 -98 0
26 -98 0
-10 -26 98 0
c gate 99 -97 -98 0
-97 -99 0
-98 -99 0
97 98 99 0
c gate 100 -96 99 0
-96 -100 0
99 -100 0
96 -99 100 0
c gate 101 -11 -27 0
-11 -101 0
-27 -101 0
11 27 101 0
c gate 102 -12 -28 0
-12 -102 0
-28 -102 0
12 28 102 0
c gate 103 -101 -102 0
-101 -103 0
-102 -103 0
101 102 103 0
c gate 104 -100 103 0
-100 -104 0
103 -104 0
100 -103 104 0
c gate 105 13 29 0
13 -105 0
29 -105 0
-13 -29 105 0
c gate 106 12 28 0
12 -106 0
28 -106 0
-12 -28 106 0
c gate 107 -105 -106 0
-105 -107 0
-106 -107 0
105 106 107 0
c gate 108 -104 107 0
-104 -108 0
107 -108 0
104 -107 108 0
c gate 109 -13 -29 0
-13 -109 0
-29 -109 0
13 29 109 0
c gate 110 -14 -30 0
-14 -110 0
-30 -110 0
14 30 110 0
c gate 111 -109 -110 0
-109 -111 0
-110 -111 0
109 110 111 0
c gate 112 -108 111 0
-108 -112 0
111 -112 0
108 -111 112 0
c gate 113 -62 -112 0
-62 -113 0
-112 -113 0
62 112 113 0
c gate 114 61 -113 0
61 -114 0
-113 -114 0
-61 113 114 0
c gate 115 -102 -106 0
-102 -115 0
-106 -115 0
102 106 115 0
c gate 116 8 24 0
8 -116 0
24 -116 0
-8 -24 116 0
c gate 117 -7 23 0
-7 -117 0
23 -117 0
7 -23 117 0
c gate 118 7 -23 0
7 -118 0
-23 -118 0
-7 23 118 0
c gate 119 -117 -118 0
-117 -119 0
-118 -119 0
117 118 119 0
c gate 120 -41 -45 0
-41 -120 0
-45 -120 0
41 45 120 0
c gate 121 -83 -120 0
-83 -121 0
-120 -121 0
83 120 121 0
c gate 122 -81 -121 0
-81 -122 0
-121 -122 0
81 121 122 0
c gate 123 -78 122 0
-78 -123 0
122 -123 0
78 -122 123 0
c gate 124 77 -123 0
77 -124 0
-123 -124 0
-77 123 124 0
c gate 125 -72 -124 0
-72 -125 0
-124 -125 0
72 124 125 0
c gate 126 -119 -125 0
-119 -126 0
-125 -126 0
119 125 126 0
c gate 127 -70 -126 0
-70 -127 0
-126 -127 0
70 126 127 0
c gate 128 -69 -127 0
-69 -128 0
-127 -128 0
69 127 128 0
c gate 129 -116 -128 0
-116 -129 0
-128 -129 0
116 128 129 0
c gate 130 -64 -129 0
-64 -130 0
-129 -130 0
64 129 130 0
c gate 131 -65 -130 0
-65 -131 0
-130 -131 0
65 130 131 0
c gate 132 -98 131 0
-98 -132 0
131 -132 0
98 -131 132 0
c gate 133 -63 -101 0
-63 -133 0
-101 -133 0
63 101 133 0
c gate 134 -132 133 0
-132 -134 0
133 -134 0
132 -133 134 0
c gate 135 -97 -134 0
-97 -135 0
-134 -135 0
97 134 135 0
c gate 136 115 -135 0
115 -136 0
-135 -136 0
-115 135 136 0
c gate 137 -106 -136 0
-106 -137 0
-136 -137 0
106 136 137 0
c gate 138 -109 -137 0
-109 -138 0
-137 -138 0
109 137 138 0
c gate 139 -62 -105 0
-62 -139 0
-105 -139 0
62 105 139 0
c gate 140 -138 139 0
-138 -140 0
139 -140 0
138 -139 140 0
c gate 141 -60 -110 0
-60 -141 0
-110 -141 0
60 110 141 0
c gate 142 -140 141 0
-140 -142 0
141 -142 0
140 -141 142 0
c gate 143 -59 -142 0
-59 -143 0
-142 -143 0
59 142 143 0
c gate 144 -16 -32 0
-16 -144 0
-32 -144 0
16 32 144 0
c gate 145 16 32 0
16 -145 0
32 -145 0
-16 -32 145 0
c gate 146 -144 -145 0
-144 -146 0
-145 -146 0
144 145 146 0
c gate 147 143 146 0
143 -147 0
146 -147 0
-143 -146 147 0
c gate 148 114 147 0
114 -148 0
147 -148 0
-114 -147 148 0
c gate 149 -58 -148 0
-58 -149 0
-148 -149 0
58 148 149 0
c gate 150 -5 21 0
-5 -150 0
21 -150 0
5 -21 150 0
c gate 151 -4 20 0
-4 -151 0
20 -151 0
4 -20 151 0
c gate 152 -56 -151 0
-56 -152 0
-151 -152 0
56 151 152 0
c gate 153 -79 -152 0
-79 -153 0
-152 -153 0
79 152 153 0
c gate 154 -150 -153 0
-150 -154 0
-153 -154 0
150 153 154 0
c gate 155 58 -79 0
58 -155 0
-79 -155 0
-58 79 155 0
c gate 156 -154 -155 0
-154 -156 0
-155 -156 0
154 155 156 0
c gate 157 -75 -156 0
-75 -157 0
-156 -157 0
75 156 157 0
c gate 158 -74 -157 0
-74 -158 0
-157 -158 0
74 157 158 0
c gate 159 -74 -154 0
-74 -159 0
-154 -159 0
74 154 159 0
c gate 160 -75 -159 0
-75 -160 0
-159 -160 0
75 159 160 0
c gate 161 -119 -160 0
-119 -161 0
-160 -161 0
119 160 161 0
c gate 162 -158 161 0
-158 -162 0
161 -162 0
158 -161 162 0
c gate 163 76 -79 0
76 -163 0
-79 -163 0
-76 79 163 0
c gate 164 58 -163 0
58 -164 0
-163 -164 0
-58 163 164 0
c gate 165 -162 -164 0
-162 -165 0
-164 -165 0
162 164 165 0
c gate 166 -149 165 0
-149 -166 0
165 -166 0
149 -165 166 0
c gate 167 69 -91 0
69 -167 0
-91 -167 0
-69 91 167 0
c gate 168 -92 -167 0
-92 -168 0
-167 -168 0
92 167 168 0
c gate 169 69 127 0
69 -169 0
127 -169 0
-69 -127 169 0
c gate 170 -128 -169 0
-128 -170 0
-169 -170 0
128 169 170 0
c gate 171 168 170 0
168 -171 0
170 -171 0
-168 -170 171 0
c gate 172 -168 -170 0
-168 -172 0
-170 -172 0
168 170 172 0
c gate 173 -171 -172 0
-171 -173 0
-172 -173 0
171 172 173 0
c gate 174 -69 -173 0
-69 -174 0
-173 -174 0
69 173 174 0
c gate 175 -97 -101 0
-97 -175 0
-101 -175 0
97 101 175 0
c gate 176 -115 135 0
-115 -176 0
135 -176 0
115 -135 176 0
c gate 177 -136 -176 0
-136 -177 0
-176 -177 0
136 176 177 0
c gate 178 175 -177 0
175 -178 0
-177 -178 0
-175 177 178 0
c gate 179 -63 -98 0
-63 -179 0
-98 -179 0
63 98 179 0
c gate 180 95 -175 0
95 -180 0
-175 -180 0
-95 175 180 0
c gate 181 179 -180 0
179 -181 0
-180 -181 0
-179 180 181 0
c gate 182 -178 181 0
-178 -182 0
181 -182 0
178 -181 182 0
c gate 183 -131 -179 0
-131 -183 0
-179 -183 0
131 179 183 0
c gate 184 -64 -65 0
-64 -184 0
-65 -184 0
64 65 184 0
c gate 185 174 184 0
174 -185 0
184 -185 0
-174 -184 185 0
c gate 186 -183 185 0
-183 -186 0
185 -186 0
183 -185 186 0
c gate 187 -182 186 0
-182 -187 0
186 -187 0
182 -186 187 0
c gate 188 93 -184 0
93 -188 0
-184 -188 0
-93 184 188 0
c gate 189 129 188 0
129 -189 0
188 -189 0
-129 -188 189 0
c gate 190 -187 -189 0
-187 -190 0
-189 -190 0
187 189 190 0
c gate 191 174 190 0
174 -191 0
190 -191 0
-174 -190 191 0
c gate 192 104 137 0
104 -192 0
137 -192 0
-104 -137 192 0
c gate 193 -104 136 0
-104 -193 0
136 -193 0
104 -136 193 0
c gate 194 -192 -193 0
-192 -194 0
-193 -194 0
192 193 194 0
c gate 195 -191 194 0
-191 -195 0
194 -195 0
191 -194 195 0
c gate 196 -143 -146 0
-143 -196 0
-146 -196 0
143 146 196 0
c gate 197 -147 -196 0
-147 -197 0
-196 -197 0
147 196 197 0
c gate 198 -61 113 0
-61 -198 0
113 -198 0
61 -113 198 0
c gate 199 -62 -110 0
-62 -199 0
-110 -199 0
62 110 199 0
c gate 200 -114 199 0
-114 -200 0
199 -200 0
114 -199 200 0
c gate 201 -198 200 0
-198 -201 0
200 -201 0
198 -200 201 0
c gate 202 -105 -109 0
-105 -202 0
-109 -202 0
105 109 202 0
c gate 203 137 -199 0
137 -203 0
-199 -203 0
-137 199 203 0
c gate 204 202 -203 0
202 -204 0
-203 -204 0
-202 203 204 0
c gate 205 -201 204 0
-201 -205 0
204 -205 0
201 -204 205 0
c gate 206 -192 -202 0
-192 -206 0
-202 -206 0
192 202 206 0
c gate 207 -194 -206 0
-194 -207 0
-206 -207 0
194 206 207 0
c gate 208 -205 207 0
-205 -208 0
207 -208 0
205 -207 208 0
c gate 209 -197 -208 0
-197 -209 0
-208 -209 0
197 208 209 0
c gate 210 197 208 0
197 -210 0
208 -210 0
-197 -208 210 0
c gate 211 -59 -114 0
-59 -211 0
-114 -211 0
59 114 211 0
c gate 212 146 211 0
146 -212 0
211 -212 0
-146 -211 212 0
c gate 213 -146 -211 0
-146 -213 0
-211 -213 0
146 211 213 0
c gate 214 -212 -213 0
-212 -214 0
-213 -214 0
212 213 214 0
c gate 215 -210 214 0
-210 -215 0
214 -215 0
210 -214 215 0
c gate 216 -209 -215 0
-209 -216 0
-215 -216 0
209 215 216 0
c gate 217 -195 -216 0
-195 -217 0
-216 -217 0
195 216 217 0
c gate 218 -81 -83 0
-81 -218 0
-83 -218 0
81 83 218 0
c gate 219 120 -218 0
120 -219 0
-218 -219 0
-120 218 219 0
c gate 220 -46 -48 0
-46 -220 0
-48 -220 0
46 48 220 0
c gate 221 -219 -220 0
-219 -221 0
-220 -221 0
219 220 221 0
c gate 222 -49 -221 0
-49 -222 0
-221 -222 0
49 221 222 0
c gate 223 119 125 0
119 -223 0
125 -223 0
-119 -125 223 0
c gate 224 -126 -223 0
-126 -224 0
-223 -224 0
126 223 224 0
c gate 225 89 -119 0
89 -225 0
-119 -225 0
-89 119 225 0
c gate 226 -89 119 0
-89 -226 0
119 -226 0
89 -119 226 0
c gate 227 -225 -226 0
-225 -227 0
-226 -227 0
225 226 227 0
c gate 228 -224 -227 0
-224 -228 0
-227 -228 0
224 227 228 0
c gate 229 87 121 0
87 -229 0
121 -229 0
-87 -121 229 0
c gate 230 -80 -86 0
-80 -230 0
-86 -230 0
80 86 230 0
c gate 231 122 230 0
122 -231 0
230 -231 0
-122 -230 231 0
c gate 232 -229 -231 0
-229 -232 0
-231 -232 0
229 231 232 0
c gate 233 -228 232 0
-228 -233 0
232 -233 0
228 -232 233 0
c gate 234 -222 233 0
-222 -234 0
233 -234 0
222 -233 234 0
c gate 235 224 227 0
224 -235 0
227 -235 0
-224 -227 235 0
c gate 236 -171 -235 0
-171 -236 0
-235 -236 0
171 235 236 0
c gate 237 -234 236 0
-234 -237 0
236 -237 0
234 -236 237 0
c gate 238 -172 -174 0
-172 -238 0
-174 -238 0
172 174 238 0
c gate 239 -237 238 0
-237 -239 0
238 -239 0
237 -238 239 0
c gate 240 -217 -239 0
-217 -240 0
-239 -240 0
217 239 240 0
c gate 241 142 212 0
142 -241 0
212 -241 0
-142 -212 241 0
c gate 242 149 -241 0
149 -242 0
-241 -242 0
-149 241 242 0
c gate 243 -240 242 0
-240 -243 0
242 -243 0
240 -242 243 0
c gate 244 -166 -243 0
-166 -244 0
-243 -244 0
166 243 244 0
c gate 245 -10 26 0
-10 -245 0
26 -245 0
10 -26 245 0
c gate 246 9 -25 0
9 -246 0
-25 -246 0
-9 25 246 0
c gate 247 -9 25 0
-9 -247 0
25 -247 0
9 -25 247 0
c gate 248 -117 -158 0
-117 -248 0
-158 -248 0
117 158 248 0
c gate 249 -118 -248 0
-118 -249 0
-248 -249 0
118 248 249 0
c gate 250 -67 -249 0
-67 -250 0
-249 -250 0
67 249 250 0
c gate 251 -68 -250 0
-68 -251 0
-250 -251 0
68 250 251 0
c gate 252 -247 -251 0
-247 -252 0
-251 -252 0
247 251 252 0
c gate 253 -246 -252 0
-246 -253 0
-252 -253 0
246 252 253 0
c gate 254 -245 -253 0
-245 -254 0
-253 -254 0
245 253 254 0
c gate 255 10 -26 0
10 -255 0
-26 -255 0
-10 26 255 0
c gate 256 -118 -160 0
-118 -256 0
-160 -256 0
118 160 256 0
c gate 257 -117 -256 0
-117 -257 0
-256 -257 0
117 256 257 0
c gate 258 -68 -257 0
-68 -258 0
-257 -258 0
68 257 258 0
c gate 259 -67 -258 0
-67 -259 0
-258 -259 0
67 258 259 0
c gate 260 -246 -259 0
-246 -260 0
-259 -260 0
246 259 260 0
c gate 261 -247 -260 0
-247 -261 0
-260 -261 0
247 260 261 0
c gate 262 -255 -261 0
-255 -262 0
-261 -262 0
255 261 262 0
c gate 263 254 262 0
254 -263 0
262 -263 0
-254 -262 263 0
c gate 264 -175 263 0
-175 -264 0
263 -264 0
175 -263 264 0
c gate 265 -61 -146 0
-61 -265 0
-146 -265 0
61 146 265 0
c gate 266 -199 -202 0
-199 -266 0
-202 -266 0
199 202 266 0
c gate 267 265 266 0
265 -267 0
266 -267 0
-265 -266 267 0
c gate 268 264 -267 0
264 -268 0
-267 -268 0
-264 267 268 0
c gate 269 -115 -175 0
-115 -269 0
-175 -269 0
115 175 269 0
c gate 270 263 -269 0
263 -270 0
-269 -270 0
-263 269 270 0
c gate 271 -175 -179 0
-175 -271 0
-179 -271 0
175 179 271 0
c gate 272 -262 271 0
-262 -272 0
271 -272 0
262 -271 272 0
c gate 273 -254 272 0
-254 -273 0
272 -273 0
254 -272 273 0
c gate 274 179 -261 0
179 -274 0
-261 -274 0
-179 261 274 0
c gate 275 -253 274 0
-253 -275 0
274 -275 0
253 -274 275 0
c gate 276 184 -259 0
184 -276 0
-259 -276 0
-184 259 276 0
c gate 277 -251 276 0
-251 -277 0
276 -277 0
251 -276 277 0
c gate 278 -69 -257 0
-69 -278 0
-257 -278 0
69 257 278 0
c gate 279 -249 278 0
-249 -279 0
278 -279 0
249 -278 279 0
c gate 280 -277 -279 0
-277 -280 0
-279 -280 0
277 279 280 0
c gate 281 -275 280 0
-275 -281 0
280 -281 0
275 -280 281 0
c gate 282 -273 281 0
-273 -282 0
281 -282 0
273 -281 282 0
c gate 283 -270 282 0
-270 -283 0
282 -283 0
270 -282 283 0
c gate 284 -268 283 0
-268 -284 0
283 -284 0
268 -283 284 0
c gate 285 -244 284 0
-244 -285 0
284 -285 0
244 -284 285 0
c gate 286 37 -285 0
37 -286 0
-285 -286 0
-37 285 286 0
c gate 287 49 -286 0
49 -287 0
-286 -287 0
-49 286 287 0
c gate 288 -49 286 0
-49 -288 0
286 -288 0
49 -286 288 0
c gate 289 -287 -288 0
-287 -289 0
-288 -289 0
287 288 289 0
c PO
289 0
